# Objective value = 117
WA1n 0
WA1p 0
WA2n 1
WA2p 0
WB1n 0
WB1p 0
WB2n 1
WB2p 0
WC1n 0
WC1p 0
WC2n 1
WC2p 0
WD1n 0
WD1p 0
WD2n 0
WD2p 1
WE1n 0
WE1p 0
WE2n 0
WE2p 1
WF1n 2
WF1p 0
WF2n 1
WF2p 0
WG1n 0
WG1p 3
WH1n 5
WH1p 0
WH2n 1
WH2p 0
WI1n 0
WI1p 8
WI2n 0
WI2p 1
WJ1n 14
WJ1p 0
WK1n 14
WK1p 0
WL1n 14
WL1p 0
WM1n 14
WM1p 0
WN1n 0
WN1p 14
WT1n 0
WT1p 13
5 7
a 0
b 0
c 0
d 0
e 0
f 0
g 0
h 1
i 0
j 1
k 0
l 0
m 1
n 0
o 0
p 1
q 1
r 0
s 0
t 0
u 0
v 1
w 1
